min: 91 x1_1 + 23 x1_2 + 74 x1_3 + 79 x1_4 + 51 x1_5 + 61 x1_6 + 14 x2_1 + 39 x2_2 + 31 x2_3 + 26 x2_4 + 90 x2_5 + 89 x2_6 + 55 x3_1 + 49 x3_2 + 99 x3_3 + 98 x3_4 + 69 x3_5 + 40 x3_6 + 88 x4_1 + 63 x4_2 + 18 x4_3 + 70 x4_4 + 96 x4_5 + 69 x4_6 + 14 x5_1 + 11 x5_2 + 37 x5_3 + 4 x5_4 + 63 x5_5 + 77 x5_6 + 47 x6_1 + 88 x6_2 + 57 x6_3 + 86 x6_4 + 50 x6_5 + 75 x6_6;

x1_1 + x1_2 + x1_3 + x1_4 + x1_5 + x1_6 = 1261;
x2_1 + x2_2 + x2_3 + x2_4 + x2_5 + x2_6 = 620;
x3_1 + x3_2 + x3_3 + x3_4 + x3_5 + x3_6 = 3917;
x4_1 + x4_2 + x4_3 + x4_4 + x4_5 + x4_6 = 4502;
x5_1 + x5_2 + x5_3 + x5_4 + x5_5 + x5_6 = 4338;
x6_1 + x6_2 + x6_3 + x6_4 + x6_5 + x6_6 = 2094;

x1_1 + x2_1 + x3_1 + x4_1 + x5_1 + x6_1 = 371;
x1_2 + x2_2 + x3_2 + x4_2 + x5_2 + x6_2 = 3696;
x1_3 + x2_3 + x3_3 + x4_3 + x5_3 + x6_3 = 4098;
x1_4 + x2_4 + x3_4 + x4_4 + x5_4 + x6_4 = 4414;
x1_5 + x2_5 + x3_5 + x4_5 + x5_5 + x6_5 = 1618;
x1_6 + x2_6 + x3_6 + x4_6 + x5_6 + x6_6 = 3170;

int x1_1, x1_2, x1_3, x1_4, x1_5, x1_6, x2_1, x2_2, x2_3, x2_4, x2_5, x2_6, x3_1, x3_2, x3_3, x3_4, x3_5, x3_6, x4_1, x4_2, x4_3, x4_4, x4_5, x4_6, x5_1, x5_2, x5_3, x5_4, x5_5, x5_6, x6_1, x6_2, x6_3, x6_4, x6_5, x6_6;